results/x-long/X-n157-k13.vrp_seed-30.vrp.sol
Route #1: 131 133 50 154 98 123 53 144 85 140 31 23
Route #2: 47 5 153 76 136 112 89 81 119 2 57 88
Route #3: 70 139 125 78 146 80 40 108 9 117 1 126
Route #4: 17 67 4 35 6 115 55 95 105 152 56 61
Route #5: 49 14 120 26 128 142 62 97 87 65 103 16
Route #6: 18 107 52 134 10 39 58 29 114 109 60 12
Route #7: 34 138 25 155 22 30 74 79 84 33 48 72
Route #8: 37 116 19 46 145 127 104 130 124 44 27 101
Route #9: 92 137 7 28 66 94 86 132 111 102 96 59
Route #10: 148 13 63 64 141 43 24 156 150 8 149 71
Route #11: 41 110 54 121 21 135 73 106 3 42 32 143
Route #12: 15 147 118 75 20 68 36 93 99 69 122 38
Route #13: 129 91 100 51 90 83 45 77 11 82 113 151
Cost 16876.000000